nohup: ignoring input
original problem has 11923 variables (11923 bin, 0 int, 0 impl, 0 cont) and 15151 constraints
original problem has 1863 variables (1863 bin, 0 int, 0 impl, 0 cont) and 2212 constraints
original problem has 1031 variables (1031 bin, 0 int, 0 impl, 0 cont) and 1176 constraints
original problem has 2799 variables (2799 bin, 0 int, 0 impl, 0 cont) and 3420 constraints
original problem has 945 variables (945 bin, 0 int, 0 impl, 0 cont) and 1099 constraints
original problem has 8065 variables (8065 bin, 0 int, 0 impl, 0 cont) and 10215 constraints
original problem has 575 variables (575 bin, 0 int, 0 impl, 0 cont) and 615 constraints
original problem has 14034 variables (14034 bin, 0 int, 0 impl, 0 cont) and 17998 constraints
